; benchmark generated from python API
(set-info :status unknown)
(declare-fun cell_1_2 () Int)
(declare-fun cell_1_6 () Int)
(declare-fun cell_2_3 () Int)
(declare-fun cell_2_4 () Int)
(declare-fun cell_3_8 () Int)
(declare-fun cell_3_9 () Int)
(declare-fun cell_4_4 () Int)
(declare-fun cell_4_8 () Int)
(declare-fun cell_5_2 () Int)
(declare-fun cell_5_5 () Int)
(declare-fun cell_6_3 () Int)
(declare-fun cell_6_9 () Int)
(declare-fun cell_7_1 () Int)
(declare-fun cell_7_5 () Int)
(declare-fun cell_8_7 () Int)
(declare-fun cell_9_1 () Int)
(declare-fun cell_1_1 () Int)
(declare-fun cell_2_1 () Int)
(declare-fun cell_3_1 () Int)
(declare-fun cell_4_1 () Int)
(declare-fun cell_5_1 () Int)
(declare-fun cell_6_1 () Int)
(declare-fun cell_8_1 () Int)
(declare-fun cell_2_2 () Int)
(declare-fun cell_3_2 () Int)
(declare-fun cell_4_2 () Int)
(declare-fun cell_6_2 () Int)
(declare-fun cell_7_2 () Int)
(declare-fun cell_8_2 () Int)
(declare-fun cell_9_2 () Int)
(declare-fun cell_1_3 () Int)
(declare-fun cell_3_3 () Int)
(declare-fun cell_4_3 () Int)
(declare-fun cell_5_3 () Int)
(declare-fun cell_7_3 () Int)
(declare-fun cell_8_3 () Int)
(declare-fun cell_9_3 () Int)
(declare-fun cell_1_4 () Int)
(declare-fun cell_3_4 () Int)
(declare-fun cell_5_4 () Int)
(declare-fun cell_6_4 () Int)
(declare-fun cell_7_4 () Int)
(declare-fun cell_8_4 () Int)
(declare-fun cell_9_4 () Int)
(declare-fun cell_1_5 () Int)
(declare-fun cell_2_5 () Int)
(declare-fun cell_3_5 () Int)
(declare-fun cell_4_5 () Int)
(declare-fun cell_6_5 () Int)
(declare-fun cell_8_5 () Int)
(declare-fun cell_9_5 () Int)
(declare-fun cell_2_6 () Int)
(declare-fun cell_3_6 () Int)
(declare-fun cell_4_6 () Int)
(declare-fun cell_5_6 () Int)
(declare-fun cell_6_6 () Int)
(declare-fun cell_7_6 () Int)
(declare-fun cell_8_6 () Int)
(declare-fun cell_9_6 () Int)
(declare-fun cell_1_7 () Int)
(declare-fun cell_2_7 () Int)
(declare-fun cell_3_7 () Int)
(declare-fun cell_4_7 () Int)
(declare-fun cell_5_7 () Int)
(declare-fun cell_6_7 () Int)
(declare-fun cell_7_7 () Int)
(declare-fun cell_9_7 () Int)
(declare-fun cell_1_8 () Int)
(declare-fun cell_2_8 () Int)
(declare-fun cell_5_8 () Int)
(declare-fun cell_6_8 () Int)
(declare-fun cell_7_8 () Int)
(declare-fun cell_8_8 () Int)
(declare-fun cell_9_8 () Int)
(declare-fun cell_1_9 () Int)
(declare-fun cell_2_9 () Int)
(declare-fun cell_4_9 () Int)
(declare-fun cell_5_9 () Int)
(declare-fun cell_7_9 () Int)
(declare-fun cell_8_9 () Int)
(declare-fun cell_9_9 () Int)
(assert
 (= cell_1_2 2))
(assert
 (= cell_1_6 1))
(assert
 (= cell_2_3 1))
(assert
 (= cell_2_4 2))
(assert
 (= cell_3_8 1))
(assert
 (= cell_3_9 2))
(assert
 (= cell_4_4 1))
(assert
 (= cell_4_8 2))
(assert
 (= cell_5_2 1))
(assert
 (= cell_5_5 2))
(assert
 (= cell_6_3 2))
(assert
 (= cell_6_9 1))
(assert
 (= cell_7_1 2))
(assert
 (= cell_7_5 1))
(assert
 (= cell_8_7 1))
(assert
 (= cell_9_1 1))
(assert
 (let (($x926 (= cell_1_1 9)))
 (let (($x925 (= cell_1_1 8)))
 (let (($x924 (= cell_1_1 7)))
 (let (($x923 (= cell_1_1 6)))
 (let (($x922 (= cell_1_1 5)))
 (let (($x921 (= cell_1_1 4)))
 (let (($x920 (= cell_1_1 3)))
 (let (($x919 (= cell_1_1 2)))
 (let (($x918 (= cell_1_1 1)))
 (or $x918 $x919 $x920 $x921 $x922 $x923 $x924 $x925 $x926)))))))))))
(assert
 (let (($x916 (= cell_2_1 9)))
 (let (($x915 (= cell_2_1 8)))
 (let (($x914 (= cell_2_1 7)))
 (let (($x913 (= cell_2_1 6)))
 (let (($x912 (= cell_2_1 5)))
 (let (($x911 (= cell_2_1 4)))
 (let (($x910 (= cell_2_1 3)))
 (let (($x909 (= cell_2_1 2)))
 (let (($x908 (= cell_2_1 1)))
 (or $x908 $x909 $x910 $x911 $x912 $x913 $x914 $x915 $x916)))))))))))
(assert
 (let (($x906 (= cell_3_1 9)))
 (let (($x905 (= cell_3_1 8)))
 (let (($x904 (= cell_3_1 7)))
 (let (($x903 (= cell_3_1 6)))
 (let (($x902 (= cell_3_1 5)))
 (let (($x901 (= cell_3_1 4)))
 (let (($x900 (= cell_3_1 3)))
 (let (($x899 (= cell_3_1 2)))
 (let (($x898 (= cell_3_1 1)))
 (or $x898 $x899 $x900 $x901 $x902 $x903 $x904 $x905 $x906)))))))))))
(assert
 (let (($x896 (= cell_4_1 9)))
 (let (($x895 (= cell_4_1 8)))
 (let (($x894 (= cell_4_1 7)))
 (let (($x893 (= cell_4_1 6)))
 (let (($x892 (= cell_4_1 5)))
 (let (($x891 (= cell_4_1 4)))
 (let (($x890 (= cell_4_1 3)))
 (let (($x889 (= cell_4_1 2)))
 (let (($x888 (= cell_4_1 1)))
 (or $x888 $x889 $x890 $x891 $x892 $x893 $x894 $x895 $x896)))))))))))
(assert
 (let (($x887 (= cell_5_1 9)))
 (let (($x886 (= cell_5_1 8)))
 (let (($x885 (= cell_5_1 7)))
 (let (($x884 (= cell_5_1 6)))
 (let (($x883 (= cell_5_1 5)))
 (let (($x882 (= cell_5_1 4)))
 (let (($x881 (= cell_5_1 3)))
 (let (($x880 (= cell_5_1 2)))
 (let (($x879 (= cell_5_1 1)))
 (or $x879 $x880 $x881 $x882 $x883 $x884 $x885 $x886 $x887)))))))))))
(assert
 (let (($x877 (= cell_6_1 9)))
 (let (($x876 (= cell_6_1 8)))
 (let (($x875 (= cell_6_1 7)))
 (let (($x874 (= cell_6_1 6)))
 (let (($x873 (= cell_6_1 5)))
 (let (($x872 (= cell_6_1 4)))
 (let (($x871 (= cell_6_1 3)))
 (let (($x870 (= cell_6_1 2)))
 (let (($x869 (= cell_6_1 1)))
 (or $x869 $x870 $x871 $x872 $x873 $x874 $x875 $x876 $x877)))))))))))
(assert
 (let (($x929 (= cell_7_1 2)))
 (or (= cell_7_1 1) $x929 (= cell_7_1 3) (= cell_7_1 4) (= cell_7_1 5) (= cell_7_1 6) (= cell_7_1 7) (= cell_7_1 8) (= cell_7_1 9))))
(assert
 (let (($x857 (= cell_8_1 9)))
 (let (($x856 (= cell_8_1 8)))
 (let (($x855 (= cell_8_1 7)))
 (let (($x854 (= cell_8_1 6)))
 (let (($x853 (= cell_8_1 5)))
 (let (($x852 (= cell_8_1 4)))
 (let (($x851 (= cell_8_1 3)))
 (let (($x850 (= cell_8_1 2)))
 (let (($x849 (= cell_8_1 1)))
 (or $x849 $x850 $x851 $x852 $x853 $x854 $x855 $x856 $x857)))))))))))
(assert
 (let (($x917 (= cell_9_1 1)))
 (or $x917 (= cell_9_1 2) (= cell_9_1 3) (= cell_9_1 4) (= cell_9_1 5) (= cell_9_1 6) (= cell_9_1 7) (= cell_9_1 8) (= cell_9_1 9))))
(assert
 (let (($x15 (= cell_1_2 2)))
 (or (= cell_1_2 1) $x15 (= cell_1_2 3) (= cell_1_2 4) (= cell_1_2 5) (= cell_1_2 6) (= cell_1_2 7) (= cell_1_2 8) (= cell_1_2 9))))
(assert
 (let (($x825 (= cell_2_2 9)))
 (let (($x824 (= cell_2_2 8)))
 (let (($x823 (= cell_2_2 7)))
 (let (($x822 (= cell_2_2 6)))
 (let (($x821 (= cell_2_2 5)))
 (let (($x820 (= cell_2_2 4)))
 (let (($x819 (= cell_2_2 3)))
 (let (($x838 (= cell_2_2 2)))
 (let (($x837 (= cell_2_2 1)))
 (or $x837 $x838 $x819 $x820 $x821 $x822 $x823 $x824 $x825)))))))))))
(assert
 (let (($x815 (= cell_3_2 9)))
 (let (($x814 (= cell_3_2 8)))
 (let (($x813 (= cell_3_2 7)))
 (let (($x812 (= cell_3_2 6)))
 (let (($x811 (= cell_3_2 5)))
 (let (($x810 (= cell_3_2 4)))
 (let (($x809 (= cell_3_2 3)))
 (let (($x828 (= cell_3_2 2)))
 (let (($x827 (= cell_3_2 1)))
 (or $x827 $x828 $x809 $x810 $x811 $x812 $x813 $x814 $x815)))))))))))
(assert
 (let (($x805 (= cell_4_2 9)))
 (let (($x804 (= cell_4_2 8)))
 (let (($x803 (= cell_4_2 7)))
 (let (($x802 (= cell_4_2 6)))
 (let (($x801 (= cell_4_2 5)))
 (let (($x800 (= cell_4_2 4)))
 (let (($x799 (= cell_4_2 3)))
 (let (($x818 (= cell_4_2 2)))
 (let (($x817 (= cell_4_2 1)))
 (or $x817 $x818 $x799 $x800 $x801 $x802 $x803 $x804 $x805)))))))))))
(assert
 (let (($x933 (= cell_5_2 1)))
 (or $x933 (= cell_5_2 2) (= cell_5_2 3) (= cell_5_2 4) (= cell_5_2 5) (= cell_5_2 6) (= cell_5_2 7) (= cell_5_2 8) (= cell_5_2 9))))
(assert
 (let (($x784 (= cell_6_2 9)))
 (let (($x783 (= cell_6_2 8)))
 (let (($x782 (= cell_6_2 7)))
 (let (($x781 (= cell_6_2 6)))
 (let (($x117 (= cell_6_2 5)))
 (let (($x780 (= cell_6_2 4)))
 (let (($x798 (= cell_6_2 3)))
 (let (($x797 (= cell_6_2 2)))
 (let (($x796 (= cell_6_2 1)))
 (or $x796 $x797 $x798 $x780 $x117 $x781 $x782 $x783 $x784)))))))))))
(assert
 (let (($x775 (= cell_7_2 9)))
 (let (($x774 (= cell_7_2 8)))
 (let (($x773 (= cell_7_2 7)))
 (let (($x772 (= cell_7_2 6)))
 (let (($x771 (= cell_7_2 5)))
 (let (($x114 (= cell_7_2 4)))
 (let (($x788 (= cell_7_2 3)))
 (let (($x787 (= cell_7_2 2)))
 (let (($x786 (= cell_7_2 1)))
 (or $x786 $x787 $x788 $x114 $x771 $x772 $x773 $x774 $x775)))))))))))
(assert
 (let (($x766 (= cell_8_2 9)))
 (let (($x765 (= cell_8_2 8)))
 (let (($x764 (= cell_8_2 7)))
 (let (($x763 (= cell_8_2 6)))
 (let (($x762 (= cell_8_2 5)))
 (let (($x761 (= cell_8_2 4)))
 (let (($x779 (= cell_8_2 3)))
 (let (($x778 (= cell_8_2 2)))
 (let (($x777 (= cell_8_2 1)))
 (or $x777 $x778 $x779 $x761 $x762 $x763 $x764 $x765 $x766)))))))))))
(assert
 (let (($x769 (= cell_9_2 2)))
 (let (($x768 (= cell_9_2 1)))
 (or $x768 $x769 (= cell_9_2 3) (= cell_9_2 4) (= cell_9_2 5) (= cell_9_2 6) (= cell_9_2 7) (= cell_9_2 8) (= cell_9_2 9)))))
(assert
 (let (($x746 (= cell_1_3 9)))
 (let (($x745 (= cell_1_3 8)))
 (let (($x744 (= cell_1_3 7)))
 (let (($x743 (= cell_1_3 6)))
 (let (($x742 (= cell_1_3 5)))
 (let (($x741 (= cell_1_3 4)))
 (let (($x760 (= cell_1_3 3)))
 (let (($x759 (= cell_1_3 2)))
 (let (($x758 (= cell_1_3 1)))
 (or $x758 $x759 $x760 $x741 $x742 $x743 $x744 $x745 $x746)))))))))))
(assert
 (let (($x939 (= cell_2_3 1)))
 (or $x939 (= cell_2_3 2) (= cell_2_3 3) (= cell_2_3 4) (= cell_2_3 5) (= cell_2_3 6) (= cell_2_3 7) (= cell_2_3 8) (= cell_2_3 9))))
(assert
 (let (($x726 (= cell_3_3 9)))
 (let (($x725 (= cell_3_3 8)))
 (let (($x724 (= cell_3_3 7)))
 (let (($x723 (= cell_3_3 6)))
 (let (($x722 (= cell_3_3 5)))
 (let (($x740 (= cell_3_3 4)))
 (let (($x739 (= cell_3_3 3)))
 (let (($x738 (= cell_3_3 2)))
 (let (($x737 (= cell_3_3 1)))
 (or $x737 $x738 $x739 $x740 $x722 $x723 $x724 $x725 $x726)))))))))))
(assert
 (let (($x716 (= cell_4_3 9)))
 (let (($x715 (= cell_4_3 8)))
 (let (($x714 (= cell_4_3 7)))
 (let (($x713 (= cell_4_3 6)))
 (let (($x712 (= cell_4_3 5)))
 (let (($x731 (= cell_4_3 4)))
 (let (($x730 (= cell_4_3 3)))
 (let (($x729 (= cell_4_3 2)))
 (let (($x728 (= cell_4_3 1)))
 (or $x728 $x729 $x730 $x731 $x712 $x713 $x714 $x715 $x716)))))))))))
(assert
 (let (($x706 (= cell_5_3 9)))
 (let (($x705 (= cell_5_3 8)))
 (let (($x704 (= cell_5_3 7)))
 (let (($x703 (= cell_5_3 6)))
 (let (($x702 (= cell_5_3 5)))
 (let (($x721 (= cell_5_3 4)))
 (let (($x720 (= cell_5_3 3)))
 (let (($x719 (= cell_5_3 2)))
 (let (($x718 (= cell_5_3 1)))
 (or $x718 $x719 $x720 $x721 $x702 $x703 $x704 $x705 $x706)))))))))))
(assert
 (let (($x931 (= cell_6_3 2)))
 (or (= cell_6_3 1) $x931 (= cell_6_3 3) (= cell_6_3 4) (= cell_6_3 5) (= cell_6_3 6) (= cell_6_3 7) (= cell_6_3 8) (= cell_6_3 9))))
(assert
 (let (($x685 (= cell_7_3 9)))
 (let (($x684 (= cell_7_3 8)))
 (let (($x683 (= cell_7_3 7)))
 (let (($x682 (= cell_7_3 6)))
 (let (($x701 (= cell_7_3 5)))
 (let (($x700 (= cell_7_3 4)))
 (let (($x699 (= cell_7_3 3)))
 (let (($x698 (= cell_7_3 2)))
 (let (($x697 (= cell_7_3 1)))
 (or $x697 $x698 $x699 $x700 $x701 $x682 $x683 $x684 $x685)))))))))))
(assert
 (let (($x675 (= cell_8_3 9)))
 (let (($x674 (= cell_8_3 8)))
 (let (($x673 (= cell_8_3 7)))
 (let (($x672 (= cell_8_3 6)))
 (let (($x691 (= cell_8_3 5)))
 (let (($x690 (= cell_8_3 4)))
 (let (($x689 (= cell_8_3 3)))
 (let (($x688 (= cell_8_3 2)))
 (let (($x687 (= cell_8_3 1)))
 (or $x687 $x688 $x689 $x690 $x691 $x672 $x673 $x674 $x675)))))))))))
(assert
 (let (($x678 (= cell_9_3 2)))
 (let (($x677 (= cell_9_3 1)))
 (or $x677 $x678 (= cell_9_3 3) (= cell_9_3 4) (= cell_9_3 5) (= cell_9_3 6) (= cell_9_3 7) (= cell_9_3 8) (= cell_9_3 9)))))
(assert
 (let (($x655 (= cell_1_4 9)))
 (let (($x654 (= cell_1_4 8)))
 (let (($x653 (= cell_1_4 7)))
 (let (($x652 (= cell_1_4 6)))
 (let (($x671 (= cell_1_4 5)))
 (let (($x670 (= cell_1_4 4)))
 (let (($x669 (= cell_1_4 3)))
 (let (($x668 (= cell_1_4 2)))
 (let (($x667 (= cell_1_4 1)))
 (or $x667 $x668 $x669 $x670 $x671 $x652 $x653 $x654 $x655)))))))))))
(assert
 (let (($x938 (= cell_2_4 2)))
 (or (= cell_2_4 1) $x938 (= cell_2_4 3) (= cell_2_4 4) (= cell_2_4 5) (= cell_2_4 6) (= cell_2_4 7) (= cell_2_4 8) (= cell_2_4 9))))
(assert
 (let (($x635 (= cell_3_4 9)))
 (let (($x634 (= cell_3_4 8)))
 (let (($x633 (= cell_3_4 7)))
 (let (($x632 (= cell_3_4 6)))
 (let (($x651 (= cell_3_4 5)))
 (let (($x650 (= cell_3_4 4)))
 (let (($x649 (= cell_3_4 3)))
 (let (($x648 (= cell_3_4 2)))
 (let (($x647 (= cell_3_4 1)))
 (or $x647 $x648 $x649 $x650 $x651 $x632 $x633 $x634 $x635)))))))))))
(assert
 (let (($x935 (= cell_4_4 1)))
 (or $x935 (= cell_4_4 2) (= cell_4_4 3) (= cell_4_4 4) (= cell_4_4 5) (= cell_4_4 6) (= cell_4_4 7) (= cell_4_4 8) (= cell_4_4 9))))
(assert
 (let (($x614 (= cell_5_4 9)))
 (let (($x613 (= cell_5_4 8)))
 (let (($x612 (= cell_5_4 7)))
 (let (($x631 (= cell_5_4 6)))
 (let (($x630 (= cell_5_4 5)))
 (let (($x629 (= cell_5_4 4)))
 (let (($x628 (= cell_5_4 3)))
 (let (($x627 (= cell_5_4 2)))
 (let (($x626 (= cell_5_4 1)))
 (or $x626 $x627 $x628 $x629 $x630 $x631 $x612 $x613 $x614)))))))))))
(assert
 (let (($x604 (= cell_6_4 9)))
 (let (($x603 (= cell_6_4 8)))
 (let (($x602 (= cell_6_4 7)))
 (let (($x621 (= cell_6_4 6)))
 (let (($x620 (= cell_6_4 5)))
 (let (($x619 (= cell_6_4 4)))
 (let (($x618 (= cell_6_4 3)))
 (let (($x617 (= cell_6_4 2)))
 (let (($x616 (= cell_6_4 1)))
 (or $x616 $x617 $x618 $x619 $x620 $x621 $x602 $x603 $x604)))))))))))
(assert
 (let (($x594 (= cell_7_4 9)))
 (let (($x593 (= cell_7_4 8)))
 (let (($x592 (= cell_7_4 7)))
 (let (($x611 (= cell_7_4 6)))
 (let (($x610 (= cell_7_4 5)))
 (let (($x609 (= cell_7_4 4)))
 (let (($x608 (= cell_7_4 3)))
 (let (($x607 (= cell_7_4 2)))
 (let (($x606 (= cell_7_4 1)))
 (or $x606 $x607 $x608 $x609 $x610 $x611 $x592 $x593 $x594)))))))))))
(assert
 (let (($x584 (= cell_8_4 9)))
 (let (($x583 (= cell_8_4 8)))
 (let (($x582 (= cell_8_4 7)))
 (let (($x601 (= cell_8_4 6)))
 (let (($x600 (= cell_8_4 5)))
 (let (($x599 (= cell_8_4 4)))
 (let (($x598 (= cell_8_4 3)))
 (let (($x597 (= cell_8_4 2)))
 (let (($x596 (= cell_8_4 1)))
 (or $x596 $x597 $x598 $x599 $x600 $x601 $x582 $x583 $x584)))))))))))
(assert
 (let (($x587 (= cell_9_4 2)))
 (let (($x586 (= cell_9_4 1)))
 (or $x586 $x587 (= cell_9_4 3) (= cell_9_4 4) (= cell_9_4 5) (= cell_9_4 6) (= cell_9_4 7) (= cell_9_4 8) (= cell_9_4 9)))))
(assert
 (let (($x565 (= cell_1_5 9)))
 (let (($x564 (= cell_1_5 8)))
 (let (($x563 (= cell_1_5 7)))
 (let (($x581 (= cell_1_5 6)))
 (let (($x580 (= cell_1_5 5)))
 (let (($x579 (= cell_1_5 4)))
 (let (($x578 (= cell_1_5 3)))
 (let (($x577 (= cell_1_5 2)))
 (let (($x576 (= cell_1_5 1)))
 (or $x576 $x577 $x578 $x579 $x580 $x581 $x563 $x564 $x565)))))))))))
(assert
 (let (($x555 (= cell_2_5 9)))
 (let (($x554 (= cell_2_5 8)))
 (let (($x553 (= cell_2_5 7)))
 (let (($x572 (= cell_2_5 6)))
 (let (($x571 (= cell_2_5 5)))
 (let (($x570 (= cell_2_5 4)))
 (let (($x569 (= cell_2_5 3)))
 (let (($x568 (= cell_2_5 2)))
 (let (($x567 (= cell_2_5 1)))
 (or $x567 $x568 $x569 $x570 $x571 $x572 $x553 $x554 $x555)))))))))))
(assert
 (let (($x545 (= cell_3_5 9)))
 (let (($x544 (= cell_3_5 8)))
 (let (($x123 (= cell_3_5 7)))
 (let (($x562 (= cell_3_5 6)))
 (let (($x561 (= cell_3_5 5)))
 (let (($x560 (= cell_3_5 4)))
 (let (($x559 (= cell_3_5 3)))
 (let (($x558 (= cell_3_5 2)))
 (let (($x557 (= cell_3_5 1)))
 (or $x557 $x558 $x559 $x560 $x561 $x562 $x123 $x544 $x545)))))))))))
(assert
 (let (($x536 (= cell_4_5 9)))
 (let (($x535 (= cell_4_5 8)))
 (let (($x534 (= cell_4_5 7)))
 (let (($x552 (= cell_4_5 6)))
 (let (($x551 (= cell_4_5 5)))
 (let (($x550 (= cell_4_5 4)))
 (let (($x549 (= cell_4_5 3)))
 (let (($x548 (= cell_4_5 2)))
 (let (($x547 (= cell_4_5 1)))
 (or $x547 $x548 $x549 $x550 $x551 $x552 $x534 $x535 $x536)))))))))))
(assert
 (let (($x932 (= cell_5_5 2)))
 (or (= cell_5_5 1) $x932 (= cell_5_5 3) (= cell_5_5 4) (= cell_5_5 5) (= cell_5_5 6) (= cell_5_5 7) (= cell_5_5 8) (= cell_5_5 9))))
(assert
 (let (($x516 (= cell_6_5 9)))
 (let (($x515 (= cell_6_5 8)))
 (let (($x533 (= cell_6_5 7)))
 (let (($x532 (= cell_6_5 6)))
 (let (($x531 (= cell_6_5 5)))
 (let (($x530 (= cell_6_5 4)))
 (let (($x529 (= cell_6_5 3)))
 (let (($x528 (= cell_6_5 2)))
 (let (($x527 (= cell_6_5 1)))
 (or $x527 $x528 $x529 $x530 $x531 $x532 $x533 $x515 $x516)))))))))))
(assert
 (let (($x928 (= cell_7_5 1)))
 (or $x928 (= cell_7_5 2) (= cell_7_5 3) (= cell_7_5 4) (= cell_7_5 5) (= cell_7_5 6) (= cell_7_5 7) (= cell_7_5 8) (= cell_7_5 9))))
(assert
 (let (($x495 (= cell_8_5 9)))
 (let (($x514 (= cell_8_5 8)))
 (let (($x513 (= cell_8_5 7)))
 (let (($x512 (= cell_8_5 6)))
 (let (($x511 (= cell_8_5 5)))
 (let (($x510 (= cell_8_5 4)))
 (let (($x509 (= cell_8_5 3)))
 (let (($x508 (= cell_8_5 2)))
 (let (($x507 (= cell_8_5 1)))
 (or $x507 $x508 $x509 $x510 $x511 $x512 $x513 $x514 $x495)))))))))))
(assert
 (let (($x498 (= cell_9_5 2)))
 (let (($x497 (= cell_9_5 1)))
 (or $x497 $x498 (= cell_9_5 3) (= cell_9_5 4) (= cell_9_5 5) (= cell_9_5 6) (= cell_9_5 7) (= cell_9_5 8) (= cell_9_5 9)))))
(assert
 (let (($x940 (= cell_1_6 1)))
 (or $x940 (= cell_1_6 2) (= cell_1_6 3) (= cell_1_6 4) (= cell_1_6 5) (= cell_1_6 6) (= cell_1_6 7) (= cell_1_6 8) (= cell_1_6 9))))
(assert
 (let (($x484 (= cell_2_6 9)))
 (let (($x483 (= cell_2_6 8)))
 (let (($x482 (= cell_2_6 7)))
 (let (($x481 (= cell_2_6 6)))
 (let (($x480 (= cell_2_6 5)))
 (let (($x479 (= cell_2_6 4)))
 (let (($x478 (= cell_2_6 3)))
 (let (($x477 (= cell_2_6 2)))
 (let (($x476 (= cell_2_6 1)))
 (or $x476 $x477 $x478 $x479 $x480 $x481 $x482 $x483 $x484)))))))))))
(assert
 (let (($x474 (= cell_3_6 9)))
 (let (($x473 (= cell_3_6 8)))
 (let (($x472 (= cell_3_6 7)))
 (let (($x471 (= cell_3_6 6)))
 (let (($x470 (= cell_3_6 5)))
 (let (($x469 (= cell_3_6 4)))
 (let (($x468 (= cell_3_6 3)))
 (let (($x467 (= cell_3_6 2)))
 (let (($x466 (= cell_3_6 1)))
 (or $x466 $x467 $x468 $x469 $x470 $x471 $x472 $x473 $x474)))))))))))
(assert
 (let (($x464 (= cell_4_6 9)))
 (let (($x463 (= cell_4_6 8)))
 (let (($x462 (= cell_4_6 7)))
 (let (($x461 (= cell_4_6 6)))
 (let (($x460 (= cell_4_6 5)))
 (let (($x459 (= cell_4_6 4)))
 (let (($x458 (= cell_4_6 3)))
 (let (($x457 (= cell_4_6 2)))
 (let (($x456 (= cell_4_6 1)))
 (or $x456 $x457 $x458 $x459 $x460 $x461 $x462 $x463 $x464)))))))))))
(assert
 (let (($x447 (= cell_5_6 2)))
 (let (($x446 (= cell_5_6 1)))
 (or $x446 $x447 (= cell_5_6 3) (= cell_5_6 4) (= cell_5_6 5) (= cell_5_6 6) (= cell_5_6 7) (= cell_5_6 8) (= cell_5_6 9)))))
(assert
 (let (($x444 (= cell_6_6 9)))
 (let (($x443 (= cell_6_6 8)))
 (let (($x442 (= cell_6_6 7)))
 (let (($x441 (= cell_6_6 6)))
 (let (($x440 (= cell_6_6 5)))
 (let (($x439 (= cell_6_6 4)))
 (let (($x438 (= cell_6_6 3)))
 (let (($x437 (= cell_6_6 2)))
 (let (($x436 (= cell_6_6 1)))
 (or $x436 $x437 $x438 $x439 $x440 $x441 $x442 $x443 $x444)))))))))))
(assert
 (let (($x434 (= cell_7_6 9)))
 (let (($x433 (= cell_7_6 8)))
 (let (($x432 (= cell_7_6 7)))
 (let (($x431 (= cell_7_6 6)))
 (let (($x430 (= cell_7_6 5)))
 (let (($x429 (= cell_7_6 4)))
 (let (($x428 (= cell_7_6 3)))
 (let (($x427 (= cell_7_6 2)))
 (let (($x426 (= cell_7_6 1)))
 (or $x426 $x427 $x428 $x429 $x430 $x431 $x432 $x433 $x434)))))))))))
(assert
 (let (($x425 (= cell_8_6 9)))
 (let (($x424 (= cell_8_6 8)))
 (let (($x423 (= cell_8_6 7)))
 (let (($x422 (= cell_8_6 6)))
 (let (($x421 (= cell_8_6 5)))
 (let (($x420 (= cell_8_6 4)))
 (let (($x419 (= cell_8_6 3)))
 (let (($x418 (= cell_8_6 2)))
 (let (($x417 (= cell_8_6 1)))
 (or $x417 $x418 $x419 $x420 $x421 $x422 $x423 $x424 $x425)))))))))))
(assert
 (let (($x113 (= cell_9_6 1)))
 (or $x113 (= cell_9_6 2) (= cell_9_6 3) (= cell_9_6 4) (= cell_9_6 5) (= cell_9_6 6) (= cell_9_6 7) (= cell_9_6 8) (= cell_9_6 9))))
(assert
 (let (($x406 (= cell_1_7 9)))
 (let (($x405 (= cell_1_7 8)))
 (let (($x404 (= cell_1_7 7)))
 (let (($x403 (= cell_1_7 6)))
 (let (($x402 (= cell_1_7 5)))
 (let (($x401 (= cell_1_7 4)))
 (let (($x400 (= cell_1_7 3)))
 (let (($x399 (= cell_1_7 2)))
 (let (($x398 (= cell_1_7 1)))
 (or $x398 $x399 $x400 $x401 $x402 $x403 $x404 $x405 $x406)))))))))))
(assert
 (let (($x396 (= cell_2_7 9)))
 (let (($x395 (= cell_2_7 8)))
 (let (($x394 (= cell_2_7 7)))
 (let (($x393 (= cell_2_7 6)))
 (let (($x392 (= cell_2_7 5)))
 (let (($x391 (= cell_2_7 4)))
 (let (($x390 (= cell_2_7 3)))
 (let (($x389 (= cell_2_7 2)))
 (let (($x388 (= cell_2_7 1)))
 (or $x388 $x389 $x390 $x391 $x392 $x393 $x394 $x395 $x396)))))))))))
(assert
 (let (($x386 (= cell_3_7 9)))
 (let (($x385 (= cell_3_7 8)))
 (let (($x384 (= cell_3_7 7)))
 (let (($x383 (= cell_3_7 6)))
 (let (($x382 (= cell_3_7 5)))
 (let (($x381 (= cell_3_7 4)))
 (let (($x380 (= cell_3_7 3)))
 (let (($x379 (= cell_3_7 2)))
 (let (($x378 (= cell_3_7 1)))
 (or $x378 $x379 $x380 $x381 $x382 $x383 $x384 $x385 $x386)))))))))))
(assert
 (let (($x376 (= cell_4_7 9)))
 (let (($x375 (= cell_4_7 8)))
 (let (($x374 (= cell_4_7 7)))
 (let (($x373 (= cell_4_7 6)))
 (let (($x372 (= cell_4_7 5)))
 (let (($x371 (= cell_4_7 4)))
 (let (($x370 (= cell_4_7 3)))
 (let (($x369 (= cell_4_7 2)))
 (let (($x368 (= cell_4_7 1)))
 (or $x368 $x369 $x370 $x371 $x372 $x373 $x374 $x375 $x376)))))))))))
(assert
 (let (($x366 (= cell_5_7 9)))
 (let (($x365 (= cell_5_7 8)))
 (let (($x364 (= cell_5_7 7)))
 (let (($x363 (= cell_5_7 6)))
 (let (($x362 (= cell_5_7 5)))
 (let (($x361 (= cell_5_7 4)))
 (let (($x360 (= cell_5_7 3)))
 (let (($x359 (= cell_5_7 2)))
 (let (($x120 (= cell_5_7 1)))
 (or $x120 $x359 $x360 $x361 $x362 $x363 $x364 $x365 $x366)))))))))))
(assert
 (let (($x357 (= cell_6_7 9)))
 (let (($x356 (= cell_6_7 8)))
 (let (($x355 (= cell_6_7 7)))
 (let (($x354 (= cell_6_7 6)))
 (let (($x353 (= cell_6_7 5)))
 (let (($x352 (= cell_6_7 4)))
 (let (($x351 (= cell_6_7 3)))
 (let (($x350 (= cell_6_7 2)))
 (let (($x349 (= cell_6_7 1)))
 (or $x349 $x350 $x351 $x352 $x353 $x354 $x355 $x356 $x357)))))))))))
(assert
 (let (($x347 (= cell_7_7 9)))
 (let (($x346 (= cell_7_7 8)))
 (let (($x345 (= cell_7_7 7)))
 (let (($x344 (= cell_7_7 6)))
 (let (($x343 (= cell_7_7 5)))
 (let (($x342 (= cell_7_7 4)))
 (let (($x341 (= cell_7_7 3)))
 (let (($x340 (= cell_7_7 2)))
 (let (($x339 (= cell_7_7 1)))
 (or $x339 $x340 $x341 $x342 $x343 $x344 $x345 $x346 $x347)))))))))))
(assert
 (let (($x927 (= cell_8_7 1)))
 (or $x927 (= cell_8_7 2) (= cell_8_7 3) (= cell_8_7 4) (= cell_8_7 5) (= cell_8_7 6) (= cell_8_7 7) (= cell_8_7 8) (= cell_8_7 9))))
(assert
 (let (($x112 (= cell_9_7 1)))
 (or $x112 (= cell_9_7 2) (= cell_9_7 3) (= cell_9_7 4) (= cell_9_7 5) (= cell_9_7 6) (= cell_9_7 7) (= cell_9_7 8) (= cell_9_7 9))))
(assert
 (let (($x317 (= cell_1_8 9)))
 (let (($x316 (= cell_1_8 8)))
 (let (($x315 (= cell_1_8 7)))
 (let (($x314 (= cell_1_8 6)))
 (let (($x313 (= cell_1_8 5)))
 (let (($x312 (= cell_1_8 4)))
 (let (($x311 (= cell_1_8 3)))
 (let (($x310 (= cell_1_8 2)))
 (let (($x309 (= cell_1_8 1)))
 (or $x309 $x310 $x311 $x312 $x313 $x314 $x315 $x316 $x317)))))))))))
(assert
 (let (($x307 (= cell_2_8 9)))
 (let (($x306 (= cell_2_8 8)))
 (let (($x305 (= cell_2_8 7)))
 (let (($x304 (= cell_2_8 6)))
 (let (($x303 (= cell_2_8 5)))
 (let (($x302 (= cell_2_8 4)))
 (let (($x301 (= cell_2_8 3)))
 (let (($x300 (= cell_2_8 2)))
 (let (($x299 (= cell_2_8 1)))
 (or $x299 $x300 $x301 $x302 $x303 $x304 $x305 $x306 $x307)))))))))))
(assert
 (let (($x937 (= cell_3_8 1)))
 (or $x937 (= cell_3_8 2) (= cell_3_8 3) (= cell_3_8 4) (= cell_3_8 5) (= cell_3_8 6) (= cell_3_8 7) (= cell_3_8 8) (= cell_3_8 9))))
(assert
 (let (($x934 (= cell_4_8 2)))
 (or (= cell_4_8 1) $x934 (= cell_4_8 3) (= cell_4_8 4) (= cell_4_8 5) (= cell_4_8 6) (= cell_4_8 7) (= cell_4_8 8) (= cell_4_8 9))))
(assert
 (let (($x275 (= cell_5_8 9)))
 (let (($x274 (= cell_5_8 8)))
 (let (($x273 (= cell_5_8 7)))
 (let (($x272 (= cell_5_8 6)))
 (let (($x271 (= cell_5_8 5)))
 (let (($x270 (= cell_5_8 4)))
 (let (($x269 (= cell_5_8 3)))
 (let (($x288 (= cell_5_8 2)))
 (let (($x287 (= cell_5_8 1)))
 (or $x287 $x288 $x269 $x270 $x271 $x272 $x273 $x274 $x275)))))))))))
(assert
 (let (($x265 (= cell_6_8 9)))
 (let (($x264 (= cell_6_8 8)))
 (let (($x263 (= cell_6_8 7)))
 (let (($x262 (= cell_6_8 6)))
 (let (($x261 (= cell_6_8 5)))
 (let (($x260 (= cell_6_8 4)))
 (let (($x118 (= cell_6_8 3)))
 (let (($x278 (= cell_6_8 2)))
 (let (($x277 (= cell_6_8 1)))
 (or $x277 $x278 $x118 $x260 $x261 $x262 $x263 $x264 $x265)))))))))))
(assert
 (let (($x256 (= cell_7_8 9)))
 (let (($x255 (= cell_7_8 8)))
 (let (($x254 (= cell_7_8 7)))
 (let (($x253 (= cell_7_8 6)))
 (let (($x252 (= cell_7_8 5)))
 (let (($x251 (= cell_7_8 4)))
 (let (($x250 (= cell_7_8 3)))
 (let (($x268 (= cell_7_8 2)))
 (let (($x267 (= cell_7_8 1)))
 (or $x267 $x268 $x250 $x251 $x252 $x253 $x254 $x255 $x256)))))))))))
(assert
 (let (($x259 (= cell_8_8 2)))
 (let (($x258 (= cell_8_8 1)))
 (or $x258 $x259 (= cell_8_8 3) (= cell_8_8 4) (= cell_8_8 5) (= cell_8_8 6) (= cell_8_8 7) (= cell_8_8 8) (= cell_8_8 9)))))
(assert
 (let (($x249 (= cell_9_8 2)))
 (let (($x248 (= cell_9_8 1)))
 (or $x248 $x249 (= cell_9_8 3) (= cell_9_8 4) (= cell_9_8 5) (= cell_9_8 6) (= cell_9_8 7) (= cell_9_8 8) (= cell_9_8 9)))))
(assert
 (let (($x226 (= cell_1_9 9)))
 (let (($x225 (= cell_1_9 8)))
 (let (($x224 (= cell_1_9 7)))
 (let (($x223 (= cell_1_9 6)))
 (let (($x222 (= cell_1_9 5)))
 (let (($x91 (= cell_1_9 4)))
 (let (($x221 (= cell_1_9 3)))
 (let (($x239 (= cell_1_9 2)))
 (let (($x238 (= cell_1_9 1)))
 (or $x238 $x239 $x221 $x91 $x222 $x223 $x224 $x225 $x226)))))))))))
(assert
 (let (($x217 (= cell_2_9 9)))
 (let (($x216 (= cell_2_9 8)))
 (let (($x215 (= cell_2_9 7)))
 (let (($x214 (= cell_2_9 6)))
 (let (($x213 (= cell_2_9 5)))
 (let (($x212 (= cell_2_9 4)))
 (let (($x125 (= cell_2_9 3)))
 (let (($x229 (= cell_2_9 2)))
 (let (($x228 (= cell_2_9 1)))
 (or $x228 $x229 $x125 $x212 $x213 $x214 $x215 $x216 $x217)))))))))))
(assert
 (let (($x936 (= cell_3_9 2)))
 (or (= cell_3_9 1) $x936 (= cell_3_9 3) (= cell_3_9 4) (= cell_3_9 5) (= cell_3_9 6) (= cell_3_9 7) (= cell_3_9 8) (= cell_3_9 9))))
(assert
 (let (($x197 (= cell_4_9 9)))
 (let (($x196 (= cell_4_9 8)))
 (let (($x195 (= cell_4_9 7)))
 (let (($x194 (= cell_4_9 6)))
 (let (($x122 (= cell_4_9 5)))
 (let (($x193 (= cell_4_9 4)))
 (let (($x211 (= cell_4_9 3)))
 (let (($x210 (= cell_4_9 2)))
 (let (($x209 (= cell_4_9 1)))
 (or $x209 $x210 $x211 $x193 $x122 $x194 $x195 $x196 $x197)))))))))))
(assert
 (let (($x188 (= cell_5_9 9)))
 (let (($x187 (= cell_5_9 8)))
 (let (($x186 (= cell_5_9 7)))
 (let (($x185 (= cell_5_9 6)))
 (let (($x184 (= cell_5_9 5)))
 (let (($x183 (= cell_5_9 4)))
 (let (($x201 (= cell_5_9 3)))
 (let (($x200 (= cell_5_9 2)))
 (let (($x199 (= cell_5_9 1)))
 (or $x199 $x200 $x201 $x183 $x184 $x185 $x186 $x187 $x188)))))))))))
(assert
 (let (($x930 (= cell_6_9 1)))
 (or $x930 (= cell_6_9 2) (= cell_6_9 3) (= cell_6_9 4) (= cell_6_9 5) (= cell_6_9 6) (= cell_6_9 7) (= cell_6_9 8) (= cell_6_9 9))))
(assert
 (let (($x167 (= cell_7_9 9)))
 (let (($x166 (= cell_7_9 8)))
 (let (($x165 (= cell_7_9 7)))
 (let (($x164 (= cell_7_9 6)))
 (let (($x163 (= cell_7_9 5)))
 (let (($x182 (= cell_7_9 4)))
 (let (($x181 (= cell_7_9 3)))
 (let (($x180 (= cell_7_9 2)))
 (let (($x179 (= cell_7_9 1)))
 (or $x179 $x180 $x181 $x182 $x163 $x164 $x165 $x166 $x167)))))))))))
(assert
 (let (($x170 (= cell_8_9 2)))
 (let (($x169 (= cell_8_9 1)))
 (or $x169 $x170 (= cell_8_9 3) (= cell_8_9 4) (= cell_8_9 5) (= cell_8_9 6) (= cell_8_9 7) (= cell_8_9 8) (= cell_8_9 9)))))
(assert
 (let (($x160 (= cell_9_9 2)))
 (let (($x159 (= cell_9_9 1)))
 (or $x159 $x160 (= cell_9_9 3) (= cell_9_9 4) (= cell_9_9 5) (= cell_9_9 6) (= cell_9_9 7) (= cell_9_9 8) (= cell_9_9 9)))))
(assert
 (and (distinct cell_1_1 cell_1_2 cell_1_3 cell_1_4 cell_1_5 cell_1_6 cell_1_7 cell_1_8 cell_1_9) true))
(assert
 (and (distinct cell_2_1 cell_2_2 cell_2_3 cell_2_4 cell_2_5 cell_2_6 cell_2_7 cell_2_8 cell_2_9) true))
(assert
 (and (distinct cell_3_1 cell_3_2 cell_3_3 cell_3_4 cell_3_5 cell_3_6 cell_3_7 cell_3_8 cell_3_9) true))
(assert
 (and (distinct cell_4_1 cell_4_2 cell_4_3 cell_4_4 cell_4_5 cell_4_6 cell_4_7 cell_4_8 cell_4_9) true))
(assert
 (and (distinct cell_5_1 cell_5_2 cell_5_3 cell_5_4 cell_5_5 cell_5_6 cell_5_7 cell_5_8 cell_5_9) true))
(assert
 (and (distinct cell_6_1 cell_6_2 cell_6_3 cell_6_4 cell_6_5 cell_6_6 cell_6_7 cell_6_8 cell_6_9) true))
(assert
 (and (distinct cell_7_1 cell_7_2 cell_7_3 cell_7_4 cell_7_5 cell_7_6 cell_7_7 cell_7_8 cell_7_9) true))
(assert
 (and (distinct cell_8_1 cell_8_2 cell_8_3 cell_8_4 cell_8_5 cell_8_6 cell_8_7 cell_8_8 cell_8_9) true))
(assert
 (and (distinct cell_9_1 cell_9_2 cell_9_3 cell_9_4 cell_9_5 cell_9_6 cell_9_7 cell_9_8 cell_9_9) true))
(assert
 (and (distinct cell_1_1 cell_2_1 cell_3_1 cell_4_1 cell_5_1 cell_6_1 cell_7_1 cell_8_1 cell_9_1) true))
(assert
 (and (distinct cell_1_2 cell_2_2 cell_3_2 cell_4_2 cell_5_2 cell_6_2 cell_7_2 cell_8_2 cell_9_2) true))
(assert
 (and (distinct cell_1_3 cell_2_3 cell_3_3 cell_4_3 cell_5_3 cell_6_3 cell_7_3 cell_8_3 cell_9_3) true))
(assert
 (and (distinct cell_1_4 cell_2_4 cell_3_4 cell_4_4 cell_5_4 cell_6_4 cell_7_4 cell_8_4 cell_9_4) true))
(assert
 (and (distinct cell_1_5 cell_2_5 cell_3_5 cell_4_5 cell_5_5 cell_6_5 cell_7_5 cell_8_5 cell_9_5) true))
(assert
 (and (distinct cell_1_6 cell_2_6 cell_3_6 cell_4_6 cell_5_6 cell_6_6 cell_7_6 cell_8_6 cell_9_6) true))
(assert
 (and (distinct cell_1_7 cell_2_7 cell_3_7 cell_4_7 cell_5_7 cell_6_7 cell_7_7 cell_8_7 cell_9_7) true))
(assert
 (and (distinct cell_1_8 cell_2_8 cell_3_8 cell_4_8 cell_5_8 cell_6_8 cell_7_8 cell_8_8 cell_9_8) true))
(assert
 (and (distinct cell_1_9 cell_2_9 cell_3_9 cell_4_9 cell_5_9 cell_6_9 cell_7_9 cell_8_9 cell_9_9) true))
(assert
 (and (distinct cell_1_1 cell_1_2 cell_1_3 cell_2_1 cell_2_2 cell_2_3 cell_3_1 cell_3_2 cell_3_3) true))
(assert
 (and (distinct cell_1_4 cell_1_5 cell_1_6 cell_2_4 cell_2_5 cell_2_6 cell_3_4 cell_3_5 cell_3_6) true))
(assert
 (and (distinct cell_1_7 cell_1_8 cell_1_9 cell_2_7 cell_2_8 cell_2_9 cell_3_7 cell_3_8 cell_3_9) true))
(assert
 (and (distinct cell_4_1 cell_4_2 cell_4_3 cell_5_1 cell_5_2 cell_5_3 cell_6_1 cell_6_2 cell_6_3) true))
(assert
 (and (distinct cell_4_4 cell_4_5 cell_4_6 cell_5_4 cell_5_5 cell_5_6 cell_6_4 cell_6_5 cell_6_6) true))
(assert
 (and (distinct cell_4_7 cell_4_8 cell_4_9 cell_5_7 cell_5_8 cell_5_9 cell_6_7 cell_6_8 cell_6_9) true))
(assert
 (and (distinct cell_7_1 cell_7_2 cell_7_3 cell_8_1 cell_8_2 cell_8_3 cell_9_1 cell_9_2 cell_9_3) true))
(assert
 (and (distinct cell_7_4 cell_7_5 cell_7_6 cell_8_4 cell_8_5 cell_8_6 cell_9_4 cell_9_5 cell_9_6) true))
(assert
 (and (distinct cell_7_7 cell_7_8 cell_7_9 cell_8_7 cell_8_8 cell_8_9 cell_9_7 cell_9_8 cell_9_9) true))
(assert
 (let (($x2911 (and (distinct cell_5_9 cell_6_8 cell_7_7 cell_8_6) true)))
 (let (($x2910 (and (distinct cell_2_9 cell_3_8 cell_4_7 cell_5_6 cell_6_5 cell_7_4 cell_8_3 cell_9_2) true)))
 (let (($x2987 (and (distinct cell_1_8 cell_2_7 cell_3_6 cell_4_5 cell_5_4 cell_6_3 cell_7_2 cell_8_1) true)))
 (let (($x2916 (and (distinct cell_1_5 cell_2_4 cell_3_3 cell_4_2) true)))
 (let (($x2915 (and (distinct cell_5_1 cell_6_2 cell_7_3 cell_8_4) true)))
 (let (($x2988 (and (distinct cell_2_1 cell_3_2 cell_4_3 cell_5_4 cell_6_5 cell_7_6 cell_8_7 cell_9_8) true)))
 (let (($x2918 (and (distinct cell_1_2 cell_2_3 cell_3_4 cell_4_5 cell_5_6 cell_6_7 cell_7_8 cell_8_9) true)))
 (let (($x2917 (and (distinct cell_1_5 cell_2_6 cell_3_7 cell_4_8) true)))
 (and $x2917 $x2918 $x2988 $x2915 $x2916 $x2987 $x2910 $x2911))))))))))
(assert
 (= cell_8_6 2))
(check-sat)
